(declare-fun Config_as1border1_RouteFilterList_101__Line1__1_0_1_0__ip
             ()
             (_ BitVec 32))
(declare-fun Config_as1border1_RouteFilterList_101__Line1__1_0_1_0__mask
             ()
             (_ BitVec 32))
(declare-fun Config_as1border1_RouteFilterList_101__Line1__1_0_1_0__length
             ()
             Int)
(declare-fun Config_as1border1_RouteFilterList_101__Line1__1_0_1_0__prefix_range_start
             ()
             Int)
(declare-fun Config_as1border1_RouteFilterList_101__Line1__1_0_1_0__prefix_range_end
             ()
             Int)
(declare-fun Config_as1border1_RouteFilterList_101__Line1__1_0_1_0__action
             ()
             Bool)
(declare-fun Config_as1border1_RouteFilterList_101__Line2__1_0_2_0__ip
             ()
             (_ BitVec 32))
(declare-fun Config_as1border1_RouteFilterList_101__Line2__1_0_2_0__mask
             ()
             (_ BitVec 32))
(declare-fun Config_as1border1_RouteFilterList_101__Line2__1_0_2_0__length
             ()
             Int)
(declare-fun Config_as1border1_RouteFilterList_101__Line2__1_0_2_0__prefix_range_start
             ()
             Int)
(declare-fun Config_as1border1_RouteFilterList_101__Line2__1_0_2_0__prefix_range_end
             ()
             Int)
(declare-fun Config_as1border1_RouteFilterList_101__Line2__1_0_2_0__action
             ()
             Bool)
(declare-fun Config_as1border1_RouteFilterList_default_list__Line1__0_0_0_0__ip
             ()
             (_ BitVec 32))
(declare-fun Config_as1border1_RouteFilterList_default_list__Line1__0_0_0_0__mask
             ()
             (_ BitVec 32))
(declare-fun Config_as1border1_RouteFilterList_default_list__Line1__0_0_0_0__length
             ()
             Int)
(declare-fun Config_as1border1_RouteFilterList_default_list__Line1__0_0_0_0__prefix_range_start
             ()
             Int)
(declare-fun Config_as1border1_RouteFilterList_default_list__Line1__0_0_0_0__prefix_range_end
             ()
             Int)
(declare-fun Config_as1border1_RouteFilterList_default_list__Line1__0_0_0_0__action
             ()
             Bool)
(declare-fun Config_as1border1_CommunityList_as2_community__Line1__action
             ()
             Bool)
(declare-fun Config_as1border1_CommunityList_as2_community__Line1__community
             ()
             Bool)
(declare-fun Config_as1border1_RoutingPolicy_as1_to_as2__Line1__set_metric_50
             ()
             Int)
(declare-fun Config_as1border1_RoutingPolicy_as1_to_as2__Line1__add_community_1_2_community
             ()
             Bool)
(declare-fun Config_as1border1_RoutingPolicy_as1_to_as2__Line2__set_metric_50
             ()
             Int)
(declare-fun Config_as1border1_RoutingPolicy_as1_to_as2__Line2__add_community_1_2_community
             ()
             Bool)
(declare-fun Config_as1border1_RoutingPolicy_as2_to_as1__Line1__set_localpreference_350
             ()
             Int)
(declare-fun Config_as1border1_RoutingPolicy_BGP_COMMON_EXPORT_POLICY_default__Line1__1_0_1_0__ip
             ()
             (_ BitVec 32))
(declare-fun Config_as1border1_RoutingPolicy_BGP_COMMON_EXPORT_POLICY_default__Line1__1_0_1_0__mask
             ()
             (_ BitVec 32))
(declare-fun Config_as1border1_RoutingPolicy_BGP_COMMON_EXPORT_POLICY_default__Line1__1_0_1_0__length
             ()
             Int)
(declare-fun Config_as1border1_RoutingPolicy_BGP_COMMON_EXPORT_POLICY_default__Line1__1_0_1_0__prefix_range_start
             ()
             Int)
(declare-fun Config_as1border1_RoutingPolicy_BGP_COMMON_EXPORT_POLICY_default__Line1__1_0_1_0__prefix_range_end
             ()
             Int)
(declare-fun Config_as1border1_RoutingPolicy_BGP_COMMON_EXPORT_POLICY_default__Line1__1_0_2_0__ip
             ()
             (_ BitVec 32))
(declare-fun Config_as1border1_RoutingPolicy_BGP_COMMON_EXPORT_POLICY_default__Line1__1_0_2_0__mask
             ()
             (_ BitVec 32))
(declare-fun Config_as1border1_RoutingPolicy_BGP_COMMON_EXPORT_POLICY_default__Line1__1_0_2_0__length
             ()
             Int)
(declare-fun Config_as1border1_RoutingPolicy_BGP_COMMON_EXPORT_POLICY_default__Line1__1_0_2_0__prefix_range_start
             ()
             Int)
(declare-fun Config_as1border1_RoutingPolicy_BGP_COMMON_EXPORT_POLICY_default__Line1__1_0_2_0__prefix_range_end
             ()
             Int)
(declare-fun Config_as1border1_RoutingPolicy_BGP_REDISTRIBUTION_default__Line1__1_0_1_0__ip
             ()
             (_ BitVec 32))
(declare-fun Config_as1border1_RoutingPolicy_BGP_REDISTRIBUTION_default__Line1__1_0_1_0__mask
             ()
             (_ BitVec 32))
(declare-fun Config_as1border1_RoutingPolicy_BGP_REDISTRIBUTION_default__Line1__1_0_1_0__length
             ()
             Int)
(declare-fun Config_as1border1_RoutingPolicy_BGP_REDISTRIBUTION_default__Line1__1_0_1_0__prefix_range_start
             ()
             Int)
(declare-fun Config_as1border1_RoutingPolicy_BGP_REDISTRIBUTION_default__Line1__1_0_1_0__prefix_range_end
             ()
             Int)
(declare-fun Config_as1border1_RoutingPolicy_BGP_REDISTRIBUTION_default__Line1__1_0_2_0__ip
             ()
             (_ BitVec 32))
(declare-fun Config_as1border1_RoutingPolicy_BGP_REDISTRIBUTION_default__Line1__1_0_2_0__mask
             ()
             (_ BitVec 32))
(declare-fun Config_as1border1_RoutingPolicy_BGP_REDISTRIBUTION_default__Line1__1_0_2_0__length
             ()
             Int)
(declare-fun Config_as1border1_RoutingPolicy_BGP_REDISTRIBUTION_default__Line1__1_0_2_0__prefix_range_start
             ()
             Int)
(declare-fun Config_as1border1_RoutingPolicy_BGP_REDISTRIBUTION_default__Line1__1_0_2_0__prefix_range_end
             ()
             Int)
(declare-fun Config_as1border1_RoutingPolicy_OSPF_EXPORT_POLICY_default__Line1__0_0_0_0__ip
             ()
             (_ BitVec 32))
(declare-fun Config_as1border1_RoutingPolicy_OSPF_EXPORT_POLICY_default__Line1__0_0_0_0__mask
             ()
             (_ BitVec 32))
(declare-fun Config_as1border1_RoutingPolicy_OSPF_EXPORT_POLICY_default__Line1__0_0_0_0__length
             ()
             Int)
(declare-fun Config_as1border1_RoutingPolicy_OSPF_EXPORT_POLICY_default__Line1__0_0_0_0__prefix_range_start
             ()
             Int)
(declare-fun Config_as1border1_RoutingPolicy_OSPF_EXPORT_POLICY_default__Line1__0_0_0_0__prefix_range_end
             ()
             Int)
(declare-fun Config_as1border1_RoutingPolicy_OSPF_EXPORT_POLICY_default__Line1__set_metric_20
             ()
             Int)
(declare-fun Config_as2border1_RouteFilterList_101__Line1__1_0_1_0__ip
             ()
             (_ BitVec 32))
(declare-fun Config_as2border1_RouteFilterList_101__Line1__1_0_1_0__mask
             ()
             (_ BitVec 32))
(declare-fun Config_as2border1_RouteFilterList_101__Line1__1_0_1_0__length
             ()
             Int)
(declare-fun Config_as2border1_RouteFilterList_101__Line1__1_0_1_0__prefix_range_start
             ()
             Int)
(declare-fun Config_as2border1_RouteFilterList_101__Line1__1_0_1_0__prefix_range_end
             ()
             Int)
(declare-fun Config_as2border1_RouteFilterList_101__Line1__1_0_1_0__action
             ()
             Bool)
(declare-fun Config_as2border1_RouteFilterList_101__Line2__1_0_2_0__ip
             ()
             (_ BitVec 32))
(declare-fun Config_as2border1_RouteFilterList_101__Line2__1_0_2_0__mask
             ()
             (_ BitVec 32))
(declare-fun Config_as2border1_RouteFilterList_101__Line2__1_0_2_0__length
             ()
             Int)
(declare-fun Config_as2border1_RouteFilterList_101__Line2__1_0_2_0__prefix_range_start
             ()
             Int)
(declare-fun Config_as2border1_RouteFilterList_101__Line2__1_0_2_0__prefix_range_end
             ()
             Int)
(declare-fun Config_as2border1_RouteFilterList_101__Line2__1_0_2_0__action
             ()
             Bool)
(declare-fun Config_as2border1_RouteFilterList_outbound_routes__Line1__2_128_0_0__ip
             ()
             (_ BitVec 32))
(declare-fun Config_as2border1_RouteFilterList_outbound_routes__Line1__2_128_0_0__mask
             ()
             (_ BitVec 32))
(declare-fun Config_as2border1_RouteFilterList_outbound_routes__Line1__2_128_0_0__length
             ()
             Int)
(declare-fun Config_as2border1_RouteFilterList_outbound_routes__Line1__2_128_0_0__prefix_range_start
             ()
             Int)
(declare-fun Config_as2border1_RouteFilterList_outbound_routes__Line1__2_128_0_0__prefix_range_end
             ()
             Int)
(declare-fun Config_as2border1_RouteFilterList_outbound_routes__Line1__2_128_0_0__action
             ()
             Bool)
(declare-fun Config_as2border1_RouteFilterList_MATCH_SUPPRESSED_SUMMARY_ONLY_default__Line1__2_128_0_0__ip
             ()
             (_ BitVec 32))
(declare-fun Config_as2border1_RouteFilterList_MATCH_SUPPRESSED_SUMMARY_ONLY_default__Line1__2_128_0_0__mask
             ()
             (_ BitVec 32))
(declare-fun Config_as2border1_RouteFilterList_MATCH_SUPPRESSED_SUMMARY_ONLY_default__Line1__2_128_0_0__length
             ()
             Int)
(declare-fun Config_as2border1_RouteFilterList_MATCH_SUPPRESSED_SUMMARY_ONLY_default__Line1__2_128_0_0__prefix_range_start
             ()
             Int)
(declare-fun Config_as2border1_RouteFilterList_MATCH_SUPPRESSED_SUMMARY_ONLY_default__Line1__2_128_0_0__prefix_range_end
             ()
             Int)
(declare-fun Config_as2border1_RouteFilterList_MATCH_SUPPRESSED_SUMMARY_ONLY_default__Line1__2_128_0_0__action
             ()
             Bool)
(declare-fun Config_as2border1_CommunityList_as1_community__Line1__action
             ()
             Bool)
(declare-fun Config_as2border1_CommunityList_as1_community__Line1__community
             ()
             Bool)
(declare-fun Config_as2border1_RoutingPolicy_as1_to_as2__Line1__set_localpreference_350
             ()
             Int)
(declare-fun Config_as2border1_RoutingPolicy_as1_to_as2__Line1__add_community_1_2_community
             ()
             Bool)
(declare-fun Config_as2border1_RoutingPolicy_as2_to_as1__Line1__set_metric_50
             ()
             Int)
(declare-fun Config_as2border1_RoutingPolicy_as2_to_as1__Line1__add_community_2_1_community
             ()
             Bool)
(declare-fun Config_as2border1_RoutingPolicy_AGGREGATE_ROUTE_GEN_default_2_128_0_0_16__Line1__2_128_0_0__ip
             ()
             (_ BitVec 32))
(declare-fun Config_as2border1_RoutingPolicy_AGGREGATE_ROUTE_GEN_default_2_128_0_0_16__Line1__2_128_0_0__mask
             ()
             (_ BitVec 32))
(declare-fun Config_as2border1_RoutingPolicy_AGGREGATE_ROUTE_GEN_default_2_128_0_0_16__Line1__2_128_0_0__length
             ()
             Int)
(declare-fun Config_as2border1_RoutingPolicy_AGGREGATE_ROUTE_GEN_default_2_128_0_0_16__Line1__2_128_0_0__prefix_range_start
             ()
             Int)
(declare-fun Config_as2border1_RoutingPolicy_AGGREGATE_ROUTE_GEN_default_2_128_0_0_16__Line1__2_128_0_0__prefix_range_end
             ()
             Int)
(declare-fun Config_as2border1_RoutingPolicy_BGP_COMMON_EXPORT_POLICY_default__Line2__2_128_0_0__ip
             ()
             (_ BitVec 32))
(declare-fun Config_as2border1_RoutingPolicy_BGP_COMMON_EXPORT_POLICY_default__Line2__2_128_0_0__mask
             ()
             (_ BitVec 32))
(declare-fun Config_as2border1_RoutingPolicy_BGP_COMMON_EXPORT_POLICY_default__Line2__2_128_0_0__length
             ()
             Int)
(declare-fun Config_as2border1_RoutingPolicy_BGP_COMMON_EXPORT_POLICY_default__Line2__2_128_0_0__prefix_range_start
             ()
             Int)
(declare-fun Config_as2border1_RoutingPolicy_BGP_COMMON_EXPORT_POLICY_default__Line2__2_128_0_0__prefix_range_end
             ()
             Int)
(declare-fun Config_as2border1_RoutingPolicy_OSPF_EXPORT_POLICY_default__Line1__0_0_0_0__ip
             ()
             (_ BitVec 32))
(declare-fun Config_as2border1_RoutingPolicy_OSPF_EXPORT_POLICY_default__Line1__0_0_0_0__mask
             ()
             (_ BitVec 32))
(declare-fun Config_as2border1_RoutingPolicy_OSPF_EXPORT_POLICY_default__Line1__0_0_0_0__length
             ()
             Int)
(declare-fun Config_as2border1_RoutingPolicy_OSPF_EXPORT_POLICY_default__Line1__0_0_0_0__prefix_range_start
             ()
             Int)
(declare-fun Config_as2border1_RoutingPolicy_OSPF_EXPORT_POLICY_default__Line1__0_0_0_0__prefix_range_end
             ()
             Int)
(declare-fun Config_as2border1_RoutingPolicy_OSPF_EXPORT_POLICY_default__Line1__set_metric_20
             ()
             Int)
(assert (= Config_as1border1_RouteFilterList_101__Line1__1_0_1_0__ip #x01000100))
(assert (= Config_as1border1_RouteFilterList_101__Line1__1_0_1_0__mask #xffffff00))
(assert (= Config_as1border1_RouteFilterList_101__Line1__1_0_1_0__length 24))
(assert (= Config_as1border1_RouteFilterList_101__Line1__1_0_1_0__prefix_range_start 24))
(assert (= Config_as1border1_RouteFilterList_101__Line1__1_0_1_0__prefix_range_end 24))
(assert (= Config_as1border1_RouteFilterList_101__Line1__1_0_1_0__action true))
(assert (= Config_as1border1_RouteFilterList_101__Line2__1_0_2_0__ip #x01000200))
(assert (= Config_as1border1_RouteFilterList_101__Line2__1_0_2_0__mask #xffffff00))
(assert (= Config_as1border1_RouteFilterList_101__Line2__1_0_2_0__length 24))
(assert (= Config_as1border1_RouteFilterList_101__Line2__1_0_2_0__prefix_range_start 24))
(assert (= Config_as1border1_RouteFilterList_101__Line2__1_0_2_0__prefix_range_end 24))
(assert (= Config_as1border1_RouteFilterList_101__Line2__1_0_2_0__action true))
(assert (= Config_as1border1_RouteFilterList_default_list__Line1__0_0_0_0__ip
   #x00000000))
(assert (= Config_as1border1_RouteFilterList_default_list__Line1__0_0_0_0__mask
   #x00000000))
(assert (= Config_as1border1_RouteFilterList_default_list__Line1__0_0_0_0__length 0))
(assert (= Config_as1border1_RouteFilterList_default_list__Line1__0_0_0_0__prefix_range_start
   0))
(assert (= Config_as1border1_RouteFilterList_default_list__Line1__0_0_0_0__prefix_range_end
   0))
(assert (= Config_as1border1_RouteFilterList_default_list__Line1__0_0_0_0__action true))
(assert (= Config_as1border1_CommunityList_as2_community__Line1__action true))
(assert (= Config_as1border1_CommunityList_as2_community__Line1__community true))
(assert (= Config_as1border1_RoutingPolicy_as1_to_as2__Line1__set_metric_50 50))
(assert (= Config_as1border1_RoutingPolicy_as1_to_as2__Line1__add_community_1_2_community
   true))
(assert (= Config_as1border1_RoutingPolicy_as1_to_as2__Line2__set_metric_50 50))
(assert (= Config_as1border1_RoutingPolicy_as1_to_as2__Line2__add_community_1_2_community
   true))
(assert (= Config_as1border1_RoutingPolicy_as2_to_as1__Line1__set_localpreference_350
   350))
(assert (= Config_as1border1_RoutingPolicy_BGP_COMMON_EXPORT_POLICY_default__Line1__1_0_1_0__ip
   #x01000100))
(assert (= Config_as1border1_RoutingPolicy_BGP_COMMON_EXPORT_POLICY_default__Line1__1_0_1_0__mask
   #xffffff00))
(assert (= Config_as1border1_RoutingPolicy_BGP_COMMON_EXPORT_POLICY_default__Line1__1_0_1_0__length
   24))
(assert (= Config_as1border1_RoutingPolicy_BGP_COMMON_EXPORT_POLICY_default__Line1__1_0_1_0__prefix_range_start
   24))
(assert (= Config_as1border1_RoutingPolicy_BGP_COMMON_EXPORT_POLICY_default__Line1__1_0_1_0__prefix_range_end
   24))
(assert (= Config_as1border1_RoutingPolicy_BGP_COMMON_EXPORT_POLICY_default__Line1__1_0_2_0__ip
   #x01000200))
(assert (= Config_as1border1_RoutingPolicy_BGP_COMMON_EXPORT_POLICY_default__Line1__1_0_2_0__mask
   #xffffff00))
(assert (= Config_as1border1_RoutingPolicy_BGP_COMMON_EXPORT_POLICY_default__Line1__1_0_2_0__length
   24))
(assert (= Config_as1border1_RoutingPolicy_BGP_COMMON_EXPORT_POLICY_default__Line1__1_0_2_0__prefix_range_start
   24))
(assert (= Config_as1border1_RoutingPolicy_BGP_COMMON_EXPORT_POLICY_default__Line1__1_0_2_0__prefix_range_end
   24))
(assert (= Config_as1border1_RoutingPolicy_BGP_REDISTRIBUTION_default__Line1__1_0_1_0__ip
   #x01000100))
(assert (= Config_as1border1_RoutingPolicy_BGP_REDISTRIBUTION_default__Line1__1_0_1_0__mask
   #xffffff00))
(assert (= Config_as1border1_RoutingPolicy_BGP_REDISTRIBUTION_default__Line1__1_0_1_0__length
   24))
(assert (= Config_as1border1_RoutingPolicy_BGP_REDISTRIBUTION_default__Line1__1_0_1_0__prefix_range_start
   24))
(assert (= Config_as1border1_RoutingPolicy_BGP_REDISTRIBUTION_default__Line1__1_0_1_0__prefix_range_end
   24))
(assert (= Config_as1border1_RoutingPolicy_BGP_REDISTRIBUTION_default__Line1__1_0_2_0__ip
   #x01000200))
(assert (= Config_as1border1_RoutingPolicy_BGP_REDISTRIBUTION_default__Line1__1_0_2_0__mask
   #xffffff00))
(assert (= Config_as1border1_RoutingPolicy_BGP_REDISTRIBUTION_default__Line1__1_0_2_0__length
   24))
(assert (= Config_as1border1_RoutingPolicy_BGP_REDISTRIBUTION_default__Line1__1_0_2_0__prefix_range_start
   24))
(assert (= Config_as1border1_RoutingPolicy_BGP_REDISTRIBUTION_default__Line1__1_0_2_0__prefix_range_end
   24))
(assert (= Config_as1border1_RoutingPolicy_OSPF_EXPORT_POLICY_default__Line1__0_0_0_0__ip
   #x00000000))
(assert (= Config_as1border1_RoutingPolicy_OSPF_EXPORT_POLICY_default__Line1__0_0_0_0__mask
   #x00000000))
(assert (= Config_as1border1_RoutingPolicy_OSPF_EXPORT_POLICY_default__Line1__0_0_0_0__length
   0))
(assert (= Config_as1border1_RoutingPolicy_OSPF_EXPORT_POLICY_default__Line1__0_0_0_0__prefix_range_start
   0))
(assert (= Config_as1border1_RoutingPolicy_OSPF_EXPORT_POLICY_default__Line1__0_0_0_0__prefix_range_end
   0))
(assert (= Config_as1border1_RoutingPolicy_OSPF_EXPORT_POLICY_default__Line1__set_metric_20
   20))
(assert (= Config_as2border1_RouteFilterList_101__Line1__1_0_1_0__ip #x01000100))
(assert (= Config_as2border1_RouteFilterList_101__Line1__1_0_1_0__mask #xffffff00))
(assert (= Config_as2border1_RouteFilterList_101__Line1__1_0_1_0__length 24))
(assert (= Config_as2border1_RouteFilterList_101__Line1__1_0_1_0__prefix_range_start 24))
(assert (= Config_as2border1_RouteFilterList_101__Line1__1_0_1_0__prefix_range_end 24))
(assert (= Config_as2border1_RouteFilterList_101__Line1__1_0_1_0__action true))
(assert (= Config_as2border1_RouteFilterList_101__Line2__1_0_2_0__ip #x01000200))
(assert (= Config_as2border1_RouteFilterList_101__Line2__1_0_2_0__mask #xffffff00))
(assert (= Config_as2border1_RouteFilterList_101__Line2__1_0_2_0__length 24))
(assert (= Config_as2border1_RouteFilterList_101__Line2__1_0_2_0__prefix_range_start 24))
(assert (= Config_as2border1_RouteFilterList_101__Line2__1_0_2_0__prefix_range_end 24))
(assert (= Config_as2border1_RouteFilterList_101__Line2__1_0_2_0__action true))
(assert (= Config_as2border1_RouteFilterList_outbound_routes__Line1__2_128_0_0__ip
   #x02800000))
(assert (= Config_as2border1_RouteFilterList_outbound_routes__Line1__2_128_0_0__mask
   #xff800000))
(assert (= Config_as2border1_RouteFilterList_outbound_routes__Line1__2_128_0_0__length
   9))
(assert (= Config_as2border1_RouteFilterList_outbound_routes__Line1__2_128_0_0__prefix_range_start
   16))
(assert (= Config_as2border1_RouteFilterList_outbound_routes__Line1__2_128_0_0__prefix_range_end
   32))
(assert (= Config_as2border1_RouteFilterList_outbound_routes__Line1__2_128_0_0__action
   true))
(assert (= Config_as2border1_RouteFilterList_MATCH_SUPPRESSED_SUMMARY_ONLY_default__Line1__2_128_0_0__ip
   #x02800000))
(assert (= Config_as2border1_RouteFilterList_MATCH_SUPPRESSED_SUMMARY_ONLY_default__Line1__2_128_0_0__mask
   #xffff0000))
(assert (= Config_as2border1_RouteFilterList_MATCH_SUPPRESSED_SUMMARY_ONLY_default__Line1__2_128_0_0__length
   16))
(assert (= Config_as2border1_RouteFilterList_MATCH_SUPPRESSED_SUMMARY_ONLY_default__Line1__2_128_0_0__prefix_range_start
   17))
(assert (= Config_as2border1_RouteFilterList_MATCH_SUPPRESSED_SUMMARY_ONLY_default__Line1__2_128_0_0__prefix_range_end
   32))
(assert (= Config_as2border1_RouteFilterList_MATCH_SUPPRESSED_SUMMARY_ONLY_default__Line1__2_128_0_0__action
   true))
(assert (= Config_as2border1_CommunityList_as1_community__Line1__action true))
(assert (= Config_as2border1_CommunityList_as1_community__Line1__community true))
(assert (= Config_as2border1_RoutingPolicy_as1_to_as2__Line1__set_localpreference_350
   350))
(assert (= Config_as2border1_RoutingPolicy_as1_to_as2__Line1__add_community_1_2_community
   true))
(assert (= Config_as2border1_RoutingPolicy_as2_to_as1__Line1__set_metric_50 50))
(assert (= Config_as2border1_RoutingPolicy_as2_to_as1__Line1__add_community_2_1_community
   true))
(assert (= Config_as2border1_RoutingPolicy_AGGREGATE_ROUTE_GEN_default_2_128_0_0_16__Line1__2_128_0_0__ip
   #x02800000))
(assert (= Config_as2border1_RoutingPolicy_AGGREGATE_ROUTE_GEN_default_2_128_0_0_16__Line1__2_128_0_0__mask
   #xffff0000))
(assert (= Config_as2border1_RoutingPolicy_AGGREGATE_ROUTE_GEN_default_2_128_0_0_16__Line1__2_128_0_0__length
   16))
(assert (= Config_as2border1_RoutingPolicy_AGGREGATE_ROUTE_GEN_default_2_128_0_0_16__Line1__2_128_0_0__prefix_range_start
   17))
(assert (= Config_as2border1_RoutingPolicy_AGGREGATE_ROUTE_GEN_default_2_128_0_0_16__Line1__2_128_0_0__prefix_range_end
   32))
(assert (= Config_as2border1_RoutingPolicy_BGP_COMMON_EXPORT_POLICY_default__Line2__2_128_0_0__ip
   #x02800000))
(assert (= Config_as2border1_RoutingPolicy_BGP_COMMON_EXPORT_POLICY_default__Line2__2_128_0_0__mask
   #xffff0000))
(assert (= Config_as2border1_RoutingPolicy_BGP_COMMON_EXPORT_POLICY_default__Line2__2_128_0_0__length
   16))
(assert (= Config_as2border1_RoutingPolicy_BGP_COMMON_EXPORT_POLICY_default__Line2__2_128_0_0__prefix_range_start
   16))
(assert (= Config_as2border1_RoutingPolicy_BGP_COMMON_EXPORT_POLICY_default__Line2__2_128_0_0__prefix_range_end
   16))
(assert (= Config_as2border1_RoutingPolicy_OSPF_EXPORT_POLICY_default__Line1__0_0_0_0__ip
   #x00000000))
(assert (= Config_as2border1_RoutingPolicy_OSPF_EXPORT_POLICY_default__Line1__0_0_0_0__mask
   #x00000000))
(assert (= Config_as2border1_RoutingPolicy_OSPF_EXPORT_POLICY_default__Line1__0_0_0_0__length
   0))
(assert (= Config_as2border1_RoutingPolicy_OSPF_EXPORT_POLICY_default__Line1__0_0_0_0__prefix_range_start
   0))
(assert (= Config_as2border1_RoutingPolicy_OSPF_EXPORT_POLICY_default__Line1__0_0_0_0__prefix_range_end
   0))
(assert (= Config_as2border1_RoutingPolicy_OSPF_EXPORT_POLICY_default__Line1__set_metric_20
   20))

